p cnf 30 45
-4 27 -3 
13 5 -28 
1 13 9 
10 -29 -24 
-15 -24 1 
-27 -29 -17 
15 -26 16 
23 2 -22 
2 -29 20 
18 22 23 
-1 -27 11 
2 6 10 
-13 28 -2 
1 -25 -19 
26 -20 25 
-17 -14 -21 
26 -28 -13 
-12 -27 -28 
-24 -13 4 
12 27 -11 
14 1 21 
29 29 -24 
6 10 18 
13 16 -3 
26 23 22 
-20 -27 4 
-8 -24 19 
5 -30 -18 
7 -24 7 
11 -11 -21 
27 -29 -16 
14 -1 -2 
27 13 -2 
-26 -16 -1 
14 -19 -4 
3 -3 30 
11 30 10 
9 14 22 
22 18 -11 
13 -14 -11 
-5 -17 1 
22 -3 18 
29 10 -2 
29 -4 27 
6 -21 11 

